path="/home/csasc/amod_complete_repo/saved_files/cplex_logs/rebalancing/scenario_nyc4/res_14.dat";
edgeAttr={<0, 1, 2>, <0, 2, 2>, <0, 3, 6>, <0, 4, 3>, <0, 5, 5>, <0, 6, 4>, <0, 7, 4>, <0, 8, 5>, <0, 9, 6>, <0, 10, 6>, <0, 11, 6>, <0, 12, 8>, <0, 13, 8>, <1, 0, 2>, <1, 2, 2>, <1, 3, 6>, <1, 4, 4>, <1, 5, 6>, <1, 6, 2>, <1, 7, 3>, <1, 8, 5>, <1, 9, 6>, <1, 10, 5>, <1, 11, 5>, <1, 12, 7>, <1, 13, 8>, <2, 0, 2>, <2, 1, 2>, <2, 3, 5>, <2, 4, 2>, <2, 5, 4>, <2, 6, 3>, <2, 7, 2>, <2, 8, 4>, <2, 9, 5>, <2, 10, 4>, <2, 11, 5>, <2, 12, 7>, <2, 13, 7>, <3, 0, 6>, <3, 1, 6>, <3, 2, 5>, <3, 4, 3>, <3, 5, 3>, <3, 6, 6>, <3, 7, 4>, <3, 8, 4>, <3, 9, 4>, <3, 10, 5>, <3, 11, 6>, <3, 12, 7>, <3, 13, 6>, <4, 0, 3>, <4, 1, 4>, <4, 2, 2>, <4, 3, 3>, <4, 5, 2>, <4, 6, 4>, <4, 7, 3>, <4, 8, 3>, <4, 9, 3>, <4, 10, 4>, <4, 11, 5>, <4, 12, 6>, <4, 13, 5>, <5, 0, 5>, <5, 1, 6>, <5, 2, 5>, <5, 3, 3>, <5, 4, 3>, <5, 6, 5>, <5, 7, 3>, <5, 8, 3>, <5, 9, 2>, <5, 10, 4>, <5, 11, 5>, <5, 12, 5>, <5, 13, 4>, <6, 0, 4>, <6, 1, 2>, <6, 2, 3>, <6, 3, 6>, <6, 4, 4>, <6, 5, 5>, <6, 7, 2>, <6, 8, 3>, <6, 9, 5>, <6, 10, 2>, <6, 11, 2>, <6, 12, 5>, <6, 13, 7>, <7, 0, 4>, <7, 1, 3>, <7, 2, 2>, <7, 3, 3>, <7, 4, 3>, <7, 5, 3>, <7, 6, 2>, <7, 8, 2>, <7, 9, 3>, <7, 10, 2>, <7, 11, 3>, <7, 12, 5>, <7, 13, 5>, <8, 0, 5>, <8, 1, 5>, <8, 2, 4>, <8, 3, 3>, <8, 4, 3>, <8, 5, 3>, <8, 6, 3>, <8, 7, 2>, <8, 9, 2>, <8, 10, 1>, <8, 11, 3>, <8, 12, 3>, <8, 13, 4>, <9, 0, 6>, <9, 1, 6>, <9, 2, 5>, <9, 3, 4>, <9, 4, 3>, <9, 5, 2>, <9, 6, 5>, <9, 7, 3>, <9, 8, 2>, <9, 10, 3>, <9, 11, 4>, <9, 12, 3>, <9, 13, 2>, <10, 0, 6>, <10, 1, 5>, <10, 2, 4>, <10, 3, 5>, <10, 4, 4>, <10, 5, 4>, <10, 6, 2>, <10, 7, 2>, <10, 8, 1>, <10, 9, 3>, <10, 11, 2>, <10, 12, 2>, <10, 13, 4>, <11, 0, 6>, <11, 1, 5>, <11, 2, 5>, <11, 3, 6>, <11, 4, 5>, <11, 5, 5>, <11, 6, 2>, <11, 7, 3>, <11, 8, 3>, <11, 9, 4>, <11, 10, 2>, <11, 12, 3>, <11, 13, 5>, <12, 0, 7>, <12, 1, 6>, <12, 2, 6>, <12, 3, 5>, <12, 4, 5>, <12, 5, 4>, <12, 6, 4>, <12, 7, 3>, <12, 8, 2>, <12, 9, 2>, <12, 10, 2>, <12, 11, 2>, <12, 13, 3>, <13, 0, 8>, <13, 1, 8>, <13, 2, 7>, <13, 3, 6>, <13, 4, 6>, <13, 5, 4>, <13, 6, 6>, <13, 7, 5>, <13, 8, 3>, <13, 9, 3>, <13, 10, 4>, <13, 11, 4>, <13, 12, 3>};
accInitTuple={<0, 33>, <1, 33>, <2, 35>, <3, 31>, <4, 28>, <5, 0>, <6, 67>, <7, 47>, <8, 35>, <9, 30>, <10, 30>, <11, 58>, <12, 0>, <13, 30>};
accRLTuple={<0, 34>, <1, 32>, <2, 32>, <3, 34>, <4, 32>, <5, 23>, <6, 30>, <7, 32>, <8, 36>, <9, 33>, <10, 34>, <11, 30>, <12, 32>, <13, 33>};
